p cnf 237 1674
109 168 0
127 130 172 0
90 193 196 0
137 138 208 0
106 111 143 173 0
78 146 151 156 0
118 134 158 0
155 162 163 0
159 169 170 0
102 125 141 225 0
98 99 122 0
93 94 95 133 0
89 230 0
86 129 136 0
83 84 101 148 0
80 81 120 153 157 0
76 77 96 114 115 131 0
119 175 177 179 0
180 181 182 183 0
184 186 0
110 187 188 0
124 191 192 194 195 0
92 197 199 200 0
103 165 203 206 207 0
139 174 209 210 0
150 212 0
213 216 218 0
164 219 221 223 0
160 185 224 0
142 190 226 228 0
231 232 234 0
88 105 166 205 0
113 128 135 140 0
82 145 149 154 235 0
79 237 0
75 116 132 214 0
74 176 178 0
71 72 73 0
69 70 91 0
65 66 68 0
64 202 0
211 215 0
62 63 117 217 0
57 58 60 61 0
55 56 222 0
54 229 0
52 204 233 0
51 85 104 0
50 147 152 0
49 236 0
-168 -172 0
-168 -198 0
-48 -168 0
-172 -198 0
-48 -172 0
-48 -198 0
-46 -89 0
-89 -157 0
-77 -89 0
-46 -157 0
-46 -77 0
-77 -157 0
-184 -187 0
-184 -203 0
-139 -184 0
-187 -203 0
-139 -187 0
-139 -203 0
-44 -45 0
-45 -116 0
-45 -176 0
-44 -116 0
-44 -176 0
-116 -176 0
-61 -63 0
-43 -63 0
-41 -63 0
-43 -61 0
-41 -61 0
-41 -43 0
-51 -52 0
-52 -147 0
-49 -52 0
-51 -147 0
-49 -51 0
-49 -147 0
-89 -168 0
-168 -184 0
-45 -168 0
-89 -184 0
-45 -89 0
-45 -184 0
-46 -172 0
-172 -187 0
-44 -172 0
-46 -187 0
-44 -46 0
-44 -187 0
-157 -198 0
-63 -198 0
-52 -198 0
-63 -157 0
-52 -157 0
-52 -63 0
-48 -77 0
-48 -61 0
-48 -51 0
-61 -77 0
-51 -77 0
-51 -61 0
-116 -203 0
-43 -203 0
-147 -203 0
-43 -116 0
-116 -147 0
-43 -147 0
-139 -176 0
-41 -139 0
-49 -139 0
-41 -176 0
-49 -176 0
-41 -49 0
-40 -130 0
-130 -193 0
-38 -130 0
-37 -130 0
-106 -130 0
-130 -146 0
-40 -193 0
-38 -40 0
-37 -40 0
-40 -106 0
-40 -146 0
-38 -193 0
-37 -193 0
-106 -193 0
-146 -193 0
-37 -38 0
-38 -106 0
-38 -146 0
-37 -106 0
-37 -146 0
-106 -146 0
-158 -162 0
-158 -220 0
-158 -169 0
-158 -225 0
-99 -158 0
-95 -158 0
-162 -220 0
-162 -169 0
-162 -225 0
-99 -162 0
-95 -162 0
-169 -220 0
-220 -225 0
-99 -220 0
-95 -220 0
-169 -225 0
-99 -169 0
-95 -169 0
-99 -225 0
-95 -225 0
-95 -99 0
-35 -86 0
-35 -84 0
-35 -81 0
-35 -76 0
-35 -180 0
-34 -35 0
-84 -86 0
-81 -86 0
-76 -86 0
-86 -180 0
-34 -86 0
-81 -84 0
-76 -84 0
-84 -180 0
-34 -84 0
-76 -81 0
-81 -180 0
-34 -81 0
-76 -180 0
-34 -76 0
-34 -180 0
-108 -188 0
-33 -188 0
-188 -191 0
-92 -188 0
-188 -206 0
-188 -209 0
-33 -108 0
-108 -191 0
-92 -108 0
-108 -206 0
-108 -209 0
-33 -191 0
-33 -92 0
-33 -206 0
-33 -209 0
-92 -191 0
-191 -206 0
-191 -209 0
-92 -206 0
-92 -209 0
-206 -209 0
-150 -213 0
-31 -150 0
-150 -164 0
-150 -185 0
-30 -150 0
-29 -150 0
-31 -213 0
-164 -213 0
-185 -213 0
-30 -213 0
-29 -213 0
-31 -164 0
-31 -185 0
-30 -31 0
-29 -31 0
-164 -185 0
-30 -164 0
-29 -164 0
-30 -185 0
-29 -185 0
-29 -30 0
-28 -231 0
-28 -205 0
-28 -140 0
-28 -145 0
-28 -132 0
-28 -178 0
-205 -231 0
-140 -231 0
-145 -231 0
-132 -231 0
-178 -231 0
-140 -205 0
-145 -205 0
-132 -205 0
-178 -205 0
-140 -145 0
-132 -140 0
-140 -178 0
-132 -145 0
-145 -178 0
-132 -178 0
-167 -171 0
-73 -167 0
-73 -171 0
-130 -158 0
-35 -130 0
-130 -188 0
-130 -150 0
-28 -130 0
-35 -158 0
-158 -188 0
-150 -158 0
-28 -158 0
-35 -188 0
-35 -150 0
-28 -35 0
-150 -188 0
-28 -188 0
-28 -150 0
-40 -162 0
-40 -86 0
-40 -108 0
-40 -213 0
-40 -231 0
-86 -162 0
-108 -162 0
-162 -213 0
-162 -231 0
-86 -108 0
-86 -213 0
-86 -231 0
-108 -213 0
-108 -231 0
-213 -231 0
-193 -220 0
-84 -193 0
-33 -193 0
-31 -193 0
-193 -205 0
-167 -193 0
-84 -220 0
-33 -220 0
-31 -220 0
-205 -220 0
-167 -220 0
-33 -84 0
-31 -84 0
-84 -205 0
-84 -167 0
-31 -33 0
-33 -205 0
-33 -167 0
-31 -205 0
-31 -167 0
-167 -205 0
-38 -169 0
-38 -81 0
-38 -191 0
-38 -164 0
-38 -140 0
-38 -171 0
-81 -169 0
-169 -191 0
-164 -169 0
-140 -169 0
-169 -171 0
-81 -191 0
-81 -164 0
-81 -140 0
-81 -171 0
-164 -191 0
-140 -191 0
-171 -191 0
-140 -164 0
-164 -171 0
-140 -171 0
-37 -225 0
-37 -76 0
-37 -92 0
-37 -185 0
-37 -145 0
-37 -73 0
-76 -225 0
-92 -225 0
-185 -225 0
-145 -225 0
-73 -225 0
-76 -92 0
-76 -185 0
-76 -145 0
-73 -76 0
-92 -185 0
-92 -145 0
-73 -92 0
-145 -185 0
-73 -185 0
-73 -145 0
-99 -106 0
-106 -180 0
-106 -206 0
-30 -106 0
-106 -132 0
-99 -180 0
-99 -206 0
-30 -99 0
-99 -132 0
-180 -206 0
-30 -180 0
-132 -180 0
-30 -206 0
-132 -206 0
-30 -132 0
-95 -146 0
-34 -146 0
-146 -209 0
-29 -146 0
-146 -178 0
-34 -95 0
-95 -209 0
-29 -95 0
-95 -178 0
-34 -209 0
-29 -34 0
-34 -178 0
-29 -209 0
-178 -209 0
-29 -178 0
-27 -122 0
-190 -216 0
-25 -216 0
-25 -190 0
-79 -232 0
-214 -232 0
-79 -214 0
-216 -232 0
-27 -190 0
-27 -79 0
-79 -190 0
-25 -122 0
-122 -214 0
-25 -214 0
-23 -159 0
-23 -141 0
-22 -23 0
-23 -133 0
-141 -159 0
-22 -159 0
-133 -159 0
-22 -141 0
-133 -141 0
-22 -133 0
-101 -153 0
-96 -101 0
-101 -175 0
-21 -101 0
-96 -153 0
-153 -175 0
-21 -153 0
-96 -175 0
-21 -96 0
-21 -175 0
-126 -186 0
-124 -186 0
-186 -197 0
-124 -126 0
-126 -197 0
-124 -197 0
-88 -97 0
-97 -128 0
-82 -97 0
-88 -128 0
-82 -88 0
-82 -128 0
-211 -217 0
-60 -211 0
-211 -222 0
-211 -227 0
-60 -217 0
-217 -222 0
-217 -227 0
-60 -222 0
-60 -227 0
-222 -227 0
-54 -233 0
-54 -104 0
-54 -112 0
-54 -236 0
-104 -233 0
-112 -233 0
-233 -236 0
-104 -112 0
-104 -236 0
-112 -236 0
-97 -186 0
-23 -101 0
-23 -126 0
-23 -88 0
-23 -211 0
-23 -54 0
-101 -126 0
-88 -101 0
-101 -211 0
-54 -101 0
-88 -126 0
-126 -211 0
-54 -126 0
-88 -211 0
-54 -88 0
-54 -211 0
-153 -159 0
-124 -159 0
-128 -159 0
-159 -217 0
-159 -233 0
-124 -153 0
-128 -153 0
-153 -217 0
-153 -233 0
-124 -128 0
-124 -217 0
-124 -233 0
-128 -217 0
-128 -233 0
-217 -233 0
-96 -141 0
-141 -197 0
-82 -141 0
-60 -141 0
-104 -141 0
-96 -197 0
-82 -96 0
-60 -96 0
-96 -104 0
-82 -197 0
-60 -197 0
-104 -197 0
-60 -82 0
-82 -104 0
-60 -104 0
-22 -175 0
-22 -222 0
-22 -112 0
-175 -222 0
-112 -175 0
-112 -222 0
-21 -133 0
-133 -227 0
-133 -236 0
-21 -227 0
-21 -236 0
-227 -236 0
-67 -201 0
-67 -138 0
-67 -111 0
-138 -201 0
-111 -201 0
-111 -138 0
-80 -115 0
-80 -177 0
-80 -181 0
-115 -177 0
-115 -181 0
-177 -181 0
-135 -149 0
-100 -152 0
-67 -80 0
-67 -135 0
-80 -135 0
-115 -201 0
-149 -201 0
-115 -149 0
-138 -177 0
-100 -138 0
-100 -177 0
-111 -181 0
-111 -152 0
-152 -181 0
-109 -208 0
-109 -173 0
-109 -151 0
-173 -208 0
-151 -208 0
-151 -173 0
-179 -230 0
-182 -230 0
-20 -230 0
-179 -182 0
-20 -179 0
-20 -182 0
-192 -199 0
-47 -192 0
-192 -207 0
-192 -210 0
-47 -199 0
-199 -207 0
-199 -210 0
-47 -207 0
-47 -210 0
-207 -210 0
-160 -219 0
-142 -219 0
-19 -219 0
-18 -219 0
-142 -160 0
-19 -160 0
-18 -160 0
-19 -142 0
-18 -142 0
-18 -19 0
-17 -72 0
-17 -70 0
-17 -68 0
-17 -202 0
-70 -72 0
-68 -72 0
-72 -202 0
-68 -70 0
-70 -202 0
-68 -202 0
-58 -62 0
-56 -62 0
-16 -62 0
-15 -62 0
-56 -58 0
-16 -58 0
-15 -58 0
-16 -56 0
-15 -56 0
-15 -16 0
-109 -230 0
-192 -219 0
-17 -192 0
-62 -192 0
-17 -219 0
-62 -219 0
-17 -62 0
-160 -199 0
-72 -199 0
-58 -199 0
-72 -160 0
-58 -160 0
-58 -72 0
-179 -208 0
-47 -208 0
-142 -208 0
-70 -208 0
-56 -208 0
-47 -179 0
-142 -179 0
-70 -179 0
-56 -179 0
-47 -142 0
-47 -70 0
-47 -56 0
-70 -142 0
-56 -142 0
-56 -70 0
-173 -182 0
-173 -207 0
-19 -173 0
-68 -173 0
-16 -173 0
-182 -207 0
-19 -182 0
-68 -182 0
-16 -182 0
-19 -207 0
-68 -207 0
-16 -207 0
-19 -68 0
-16 -19 0
-16 -68 0
-20 -151 0
-151 -210 0
-18 -151 0
-151 -202 0
-15 -151 0
-20 -210 0
-18 -20 0
-20 -202 0
-15 -20 0
-18 -210 0
-202 -210 0
-15 -210 0
-18 -202 0
-15 -18 0
-15 -202 0
-39 -194 0
-36 -39 0
-39 -103 0
-36 -194 0
-103 -194 0
-36 -103 0
-161 -221 0
-161 -226 0
-14 -161 0
-221 -226 0
-14 -221 0
-14 -226 0
-32 -107 0
-91 -107 0
-66 -107 0
-32 -91 0
-32 -66 0
-66 -91 0
-204 -229 0
-144 -229 0
-50 -229 0
-144 -204 0
-50 -204 0
-50 -144 0
-39 -161 0
-39 -107 0
-39 -229 0
-107 -161 0
-161 -229 0
-107 -229 0
-194 -221 0
-32 -194 0
-194 -204 0
-32 -221 0
-204 -221 0
-32 -204 0
-36 -226 0
-36 -91 0
-36 -144 0
-91 -226 0
-144 -226 0
-91 -144 0
-14 -103 0
-66 -103 0
-50 -103 0
-14 -66 0
-14 -50 0
-50 -66 0
-123 -127 0
-127 -196 0
-13 -127 0
-12 -127 0
-127 -137 0
-127 -143 0
-127 -156 0
-123 -196 0
-13 -123 0
-12 -123 0
-123 -137 0
-123 -143 0
-123 -156 0
-13 -196 0
-12 -196 0
-137 -196 0
-143 -196 0
-156 -196 0
-12 -13 0
-13 -137 0
-13 -143 0
-13 -156 0
-12 -137 0
-12 -143 0
-12 -156 0
-137 -143 0
-137 -156 0
-143 -156 0
-134 -155 0
-11 -134 0
-134 -170 0
-102 -134 0
-10 -134 0
-98 -134 0
-94 -134 0
-11 -155 0
-155 -170 0
-102 -155 0
-10 -155 0
-98 -155 0
-94 -155 0
-11 -170 0
-11 -102 0
-10 -11 0
-11 -98 0
-11 -94 0
-102 -170 0
-10 -170 0
-98 -170 0
-94 -170 0
-10 -102 0
-98 -102 0
-94 -102 0
-10 -98 0
-10 -94 0
-94 -98 0
-87 -129 0
-83 -87 0
-87 -120 0
-87 -114 0
-87 -119 0
-87 -183 0
-9 -87 0
-83 -129 0
-120 -129 0
-114 -129 0
-119 -129 0
-129 -183 0
-9 -129 0
-83 -120 0
-83 -114 0
-83 -119 0
-83 -183 0
-9 -83 0
-114 -120 0
-119 -120 0
-120 -183 0
-9 -120 0
-114 -119 0
-114 -183 0
-9 -114 0
-119 -183 0
-9 -119 0
-9 -183 0
-8 -110 0
-7 -110 0
-110 -195 0
-110 -200 0
-6 -110 0
-110 -165 0
-110 -174 0
-7 -8 0
-8 -195 0
-8 -200 0
-6 -8 0
-8 -165 0
-8 -174 0
-7 -195 0
-7 -200 0
-6 -7 0
-7 -165 0
-7 -174 0
-195 -200 0
-6 -195 0
-165 -195 0
-174 -195 0
-6 -200 0
-165 -200 0
-174 -200 0
-6 -165 0
-6 -174 0
-165 -174 0
-212 -218 0
-59 -212 0
-212 -223 0
-212 -224 0
-212 -228 0
-26 -212 0
-121 -212 0
-59 -218 0
-218 -223 0
-218 -224 0
-218 -228 0
-26 -218 0
-121 -218 0
-59 -223 0
-59 -224 0
-59 -228 0
-26 -59 0
-59 -121 0
-223 -224 0
-223 -228 0
-26 -223 0
-121 -223 0
-224 -228 0
-26 -224 0
-121 -224 0
-26 -228 0
-121 -228 0
-26 -121 0
-53 -234 0
-53 -105 0
-53 -113 0
-53 -235 0
-53 -237 0
-53 -75 0
-53 -74 0
-105 -234 0
-113 -234 0
-234 -235 0
-234 -237 0
-75 -234 0
-74 -234 0
-105 -113 0
-105 -235 0
-105 -237 0
-75 -105 0
-74 -105 0
-113 -235 0
-113 -237 0
-75 -113 0
-74 -113 0
-235 -237 0
-75 -235 0
-74 -235 0
-75 -237 0
-74 -237 0
-74 -75 0
-4 -5 0
-5 -71 0
-5 -69 0
-5 -65 0
-5 -64 0
-4 -71 0
-4 -69 0
-4 -65 0
-4 -64 0
-69 -71 0
-65 -71 0
-64 -71 0
-65 -69 0
-64 -69 0
-64 -65 0
-117 -215 0
-57 -215 0
-55 -215 0
-189 -215 0
-24 -215 0
-57 -117 0
-55 -117 0
-117 -189 0
-24 -117 0
-55 -57 0
-57 -189 0
-24 -57 0
-55 -189 0
-24 -55 0
-24 -189 0
-127 -134 0
-87 -127 0
-110 -127 0
-127 -212 0
-53 -127 0
-87 -134 0
-110 -134 0
-134 -212 0
-53 -134 0
-87 -110 0
-87 -212 0
-53 -87 0
-110 -212 0
-53 -110 0
-53 -212 0
-123 -155 0
-123 -129 0
-8 -123 0
-123 -218 0
-123 -234 0
-129 -155 0
-8 -155 0
-155 -218 0
-155 -234 0
-8 -129 0
-129 -218 0
-129 -234 0
-8 -218 0
-8 -234 0
-218 -234 0
-11 -196 0
-83 -196 0
-7 -196 0
-59 -196 0
-105 -196 0
-5 -196 0
-196 -215 0
-11 -83 0
-7 -11 0
-11 -59 0
-11 -105 0
-5 -11 0
-11 -215 0
-7 -83 0
-59 -83 0
-83 -105 0
-5 -83 0
-83 -215 0
-7 -59 0
-7 -105 0
-5 -7 0
-7 -215 0
-59 -105 0
-5 -59 0
-59 -215 0
-5 -105 0
-105 -215 0
-5 -215 0
-13 -170 0
-13 -120 0
-13 -195 0
-13 -223 0
-13 -113 0
-4 -13 0
-13 -117 0
-120 -170 0
-170 -195 0
-170 -223 0
-113 -170 0
-4 -170 0
-117 -170 0
-120 -195 0
-120 -223 0
-113 -120 0
-4 -120 0
-117 -120 0
-195 -223 0
-113 -195 0
-4 -195 0
-117 -195 0
-113 -223 0
-4 -223 0
-117 -223 0
-4 -113 0
-113 -117 0
-4 -117 0
-12 -102 0
-12 -114 0
-12 -200 0
-12 -224 0
-12 -235 0
-12 -71 0
-12 -57 0
-102 -114 0
-102 -200 0
-102 -224 0
-102 -235 0
-71 -102 0
-57 -102 0
-114 -200 0
-114 -224 0
-114 -235 0
-71 -114 0
-57 -114 0
-200 -224 0
-200 -235 0
-71 -200 0
-57 -200 0
-224 -235 0
-71 -224 0
-57 -224 0
-71 -235 0
-57 -235 0
-57 -71 0
-10 -137 0
-119 -137 0
-6 -137 0
-137 -228 0
-137 -237 0
-69 -137 0
-55 -137 0
-10 -119 0
-6 -10 0
-10 -228 0
-10 -237 0
-10 -69 0
-10 -55 0
-6 -119 0
-119 -228 0
-119 -237 0
-69 -119 0
-55 -119 0
-6 -228 0
-6 -237 0
-6 -69 0
-6 -55 0
-228 -237 0
-69 -228 0
-55 -228 0
-69 -237 0
-55 -237 0
-55 -69 0
-98 -143 0
-143 -183 0
-143 -165 0
-26 -143 0
-75 -143 0
-65 -143 0
-143 -189 0
-98 -183 0
-98 -165 0
-26 -98 0
-75 -98 0
-65 -98 0
-98 -189 0
-165 -183 0
-26 -183 0
-75 -183 0
-65 -183 0
-183 -189 0
-26 -165 0
-75 -165 0
-65 -165 0
-165 -189 0
-26 -75 0
-26 -65 0
-26 -189 0
-65 -75 0
-75 -189 0
-65 -189 0
-94 -156 0
-9 -156 0
-156 -174 0
-121 -156 0
-74 -156 0
-64 -156 0
-24 -156 0
-9 -94 0
-94 -174 0
-94 -121 0
-74 -94 0
-64 -94 0
-24 -94 0
-9 -174 0
-9 -121 0
-9 -74 0
-9 -64 0
-9 -24 0
-121 -174 0
-74 -174 0
-64 -174 0
-24 -174 0
-74 -121 0
-64 -121 0
-24 -121 0
-64 -74 0
-24 -74 0
-24 -64 0
-3 -90 0
-2 -3 0
-3 -78 0
-2 -90 0
-78 -90 0
-2 -78 0
-42 -163 0
-125 -163 0
-93 -163 0
-42 -125 0
-42 -93 0
-93 -125 0
-136 -148 0
-131 -136 0
-1 -136 0
-131 -148 0
-1 -148 0
-1 -131 0
-154 -166 0
-3 -163 0
-3 -136 0
-136 -163 0
-42 -90 0
-90 -148 0
-90 -166 0
-42 -148 0
-42 -166 0
-148 -166 0
-2 -125 0
-2 -131 0
-2 -154 0
-125 -131 0
-125 -154 0
-131 -154 0
-78 -93 0
-1 -78 0
-1 -93 0
-168 -172 0
-89 -168 0
-46 -168 0
-89 -172 0
-46 -172 0
-46 -89 0
-40 -130 0
-130 -158 0
-130 -162 0
-35 -130 0
-86 -130 0
-40 -158 0
-40 -162 0
-35 -40 0
-40 -86 0
-158 -162 0
-35 -158 0
-86 -158 0
-35 -162 0
-86 -162 0
-35 -86 0
-109 -230 0
-123 -127 0
-127 -134 0
-127 -155 0
-87 -127 0
-127 -129 0
-123 -134 0
-123 -155 0
-87 -123 0
-123 -129 0
-134 -155 0
-87 -134 0
-129 -134 0
-87 -155 0
-129 -155 0
-87 -129 0
-3 -163 0
-3 -136 0
-136 -163 0
-48 -198 0
-157 -198 0
-77 -198 0
-48 -157 0
-48 -77 0
-77 -157 0
-38 -193 0
-37 -193 0
-193 -220 0
-169 -193 0
-193 -225 0
-84 -193 0
-81 -193 0
-76 -193 0
-37 -38 0
-38 -220 0
-38 -169 0
-38 -225 0
-38 -84 0
-38 -81 0
-38 -76 0
-37 -220 0
-37 -169 0
-37 -225 0
-37 -84 0
-37 -81 0
-37 -76 0
-169 -220 0
-220 -225 0
-84 -220 0
-81 -220 0
-76 -220 0
-169 -225 0
-84 -169 0
-81 -169 0
-76 -169 0
-84 -225 0
-81 -225 0
-76 -225 0
-81 -84 0
-76 -84 0
-76 -81 0
-23 -159 0
-23 -141 0
-23 -101 0
-23 -153 0
-23 -96 0
-141 -159 0
-101 -159 0
-153 -159 0
-96 -159 0
-101 -141 0
-141 -153 0
-96 -141 0
-101 -153 0
-96 -101 0
-96 -153 0
-67 -201 0
-67 -80 0
-67 -115 0
-80 -201 0
-115 -201 0
-80 -115 0
-13 -196 0
-12 -196 0
-11 -196 0
-170 -196 0
-102 -196 0
-83 -196 0
-120 -196 0
-114 -196 0
-12 -13 0
-11 -13 0
-13 -170 0
-13 -102 0
-13 -83 0
-13 -120 0
-13 -114 0
-11 -12 0
-12 -170 0
-12 -102 0
-12 -83 0
-12 -120 0
-12 -114 0
-11 -170 0
-11 -102 0
-11 -83 0
-11 -120 0
-11 -114 0
-102 -170 0
-83 -170 0
-120 -170 0
-114 -170 0
-83 -102 0
-102 -120 0
-102 -114 0
-83 -120 0
-83 -114 0
-114 -120 0
-2 -90 0
-42 -90 0
-90 -125 0
-90 -148 0
-90 -131 0
-2 -42 0
-2 -125 0
-2 -148 0
-2 -131 0
-42 -125 0
-42 -148 0
-42 -131 0
-125 -148 0
-125 -131 0
-131 -148 0
-106 -146 0
-99 -106 0
-95 -106 0
-106 -180 0
-34 -106 0
-99 -146 0
-95 -146 0
-146 -180 0
-34 -146 0
-95 -99 0
-99 -180 0
-34 -99 0
-95 -180 0
-34 -95 0
-34 -180 0
-27 -122 0
-22 -133 0
-22 -175 0
-21 -22 0
-133 -175 0
-21 -133 0
-21 -175 0
-111 -138 0
-138 -177 0
-138 -181 0
-111 -177 0
-111 -181 0
-177 -181 0
-173 -208 0
-151 -208 0
-179 -208 0
-182 -208 0
-20 -208 0
-151 -173 0
-173 -179 0
-173 -182 0
-20 -173 0
-151 -179 0
-151 -182 0
-20 -151 0
-179 -182 0
-20 -179 0
-20 -182 0
-137 -143 0
-137 -156 0
-10 -137 0
-98 -137 0
-94 -137 0
-119 -137 0
-137 -183 0
-9 -137 0
-143 -156 0
-10 -143 0
-98 -143 0
-94 -143 0
-119 -143 0
-143 -183 0
-9 -143 0
-10 -156 0
-98 -156 0
-94 -156 0
-119 -156 0
-156 -183 0
-9 -156 0
-10 -98 0
-10 -94 0
-10 -119 0
-10 -183 0
-9 -10 0
-94 -98 0
-98 -119 0
-98 -183 0
-9 -98 0
-94 -119 0
-94 -183 0
-9 -94 0
-119 -183 0
-9 -119 0
-9 -183 0
-78 -93 0
-1 -78 0
-1 -93 0
-184 -187 0
-45 -184 0
-44 -184 0
-45 -187 0
-44 -187 0
-44 -45 0
-108 -188 0
-150 -188 0
-188 -213 0
-28 -188 0
-188 -231 0
-108 -150 0
-108 -213 0
-28 -108 0
-108 -231 0
-150 -213 0
-28 -150 0
-150 -231 0
-28 -213 0
-213 -231 0
-28 -231 0
-216 -232 0
-97 -186 0
-8 -110 0
-110 -212 0
-110 -218 0
-53 -110 0
-110 -234 0
-8 -212 0
-8 -218 0
-8 -53 0
-8 -234 0
-212 -218 0
-53 -212 0
-212 -234 0
-53 -218 0
-218 -234 0
-53 -234 0
-33 -191 0
-33 -92 0
-31 -33 0
-33 -164 0
-33 -185 0
-33 -205 0
-33 -140 0
-33 -145 0
-92 -191 0
-31 -191 0
-164 -191 0
-185 -191 0
-191 -205 0
-140 -191 0
-145 -191 0
-31 -92 0
-92 -164 0
-92 -185 0
-92 -205 0
-92 -140 0
-92 -145 0
-31 -164 0
-31 -185 0
-31 -205 0
-31 -140 0
-31 -145 0
-164 -185 0
-164 -205 0
-140 -164 0
-145 -164 0
-185 -205 0
-140 -185 0
-145 -185 0
-140 -205 0
-145 -205 0
-140 -145 0
-124 -126 0
-126 -197 0
-88 -126 0
-126 -128 0
-82 -126 0
-124 -197 0
-88 -124 0
-124 -128 0
-82 -124 0
-88 -197 0
-128 -197 0
-82 -197 0
-88 -128 0
-82 -88 0
-82 -128 0
-135 -149 0
-192 -199 0
-192 -219 0
-160 -192 0
-199 -219 0
-160 -199 0
-160 -219 0
-39 -194 0
-39 -161 0
-39 -221 0
-161 -194 0
-194 -221 0
-161 -221 0
-7 -195 0
-7 -200 0
-7 -59 0
-7 -223 0
-7 -224 0
-7 -105 0
-7 -113 0
-7 -235 0
-195 -200 0
-59 -195 0
-195 -223 0
-195 -224 0
-105 -195 0
-113 -195 0
-195 -235 0
-59 -200 0
-200 -223 0
-200 -224 0
-105 -200 0
-113 -200 0
-200 -235 0
-59 -223 0
-59 -224 0
-59 -105 0
-59 -113 0
-59 -235 0
-223 -224 0
-105 -223 0
-113 -223 0
-223 -235 0
-105 -224 0
-113 -224 0
-224 -235 0
-105 -113 0
-105 -235 0
-113 -235 0
-154 -166 0
-139 -203 0
-116 -203 0
-176 -203 0
-116 -139 0
-139 -176 0
-116 -176 0
-206 -209 0
-30 -206 0
-29 -206 0
-132 -206 0
-178 -206 0
-30 -209 0
-29 -209 0
-132 -209 0
-178 -209 0
-29 -30 0
-30 -132 0
-30 -178 0
-29 -132 0
-29 -178 0
-132 -178 0
-25 -190 0
-79 -190 0
-190 -214 0
-25 -79 0
-25 -214 0
-79 -214 0
-47 -207 0
-47 -210 0
-47 -142 0
-19 -47 0
-18 -47 0
-207 -210 0
-142 -207 0
-19 -207 0
-18 -207 0
-142 -210 0
-19 -210 0
-18 -210 0
-19 -142 0
-18 -142 0
-18 -19 0
-36 -103 0
-36 -226 0
-14 -36 0
-103 -226 0
-14 -103 0
-14 -226 0
-6 -165 0
-6 -174 0
-6 -228 0
-6 -26 0
-6 -121 0
-6 -237 0
-6 -75 0
-6 -74 0
-165 -174 0
-165 -228 0
-26 -165 0
-121 -165 0
-165 -237 0
-75 -165 0
-74 -165 0
-174 -228 0
-26 -174 0
-121 -174 0
-174 -237 0
-75 -174 0
-74 -174 0
-26 -228 0
-121 -228 0
-228 -237 0
-75 -228 0
-74 -228 0
-26 -121 0
-26 -237 0
-26 -75 0
-26 -74 0
-121 -237 0
-75 -121 0
-74 -121 0
-75 -237 0
-74 -237 0
-74 -75 0
-61 -63 0
-52 -63 0
-51 -63 0
-52 -61 0
-51 -61 0
-51 -52 0
-167 -171 0
-73 -167 0
-73 -171 0
-211 -217 0
-60 -211 0
-54 -211 0
-211 -233 0
-104 -211 0
-60 -217 0
-54 -217 0
-217 -233 0
-104 -217 0
-54 -60 0
-60 -233 0
-60 -104 0
-54 -233 0
-54 -104 0
-104 -233 0
-17 -72 0
-17 -62 0
-17 -58 0
-62 -72 0
-58 -72 0
-58 -62 0
-32 -107 0
-107 -229 0
-107 -204 0
-32 -229 0
-32 -204 0
-204 -229 0
-4 -5 0
-5 -71 0
-5 -215 0
-5 -117 0
-5 -57 0
-4 -71 0
-4 -215 0
-4 -117 0
-4 -57 0
-71 -215 0
-71 -117 0
-57 -71 0
-117 -215 0
-57 -215 0
-57 -117 0
-41 -43 0
-43 -147 0
-43 -49 0
-41 -147 0
-41 -49 0
-49 -147 0
-222 -227 0
-112 -222 0
-222 -236 0
-112 -227 0
-227 -236 0
-112 -236 0
-100 -152 0
-68 -70 0
-70 -202 0
-56 -70 0
-16 -70 0
-15 -70 0
-68 -202 0
-56 -68 0
-16 -68 0
-15 -68 0
-56 -202 0
-16 -202 0
-15 -202 0
-16 -56 0
-15 -56 0
-15 -16 0
-66 -91 0
-91 -144 0
-50 -91 0
-66 -144 0
-50 -66 0
-50 -144 0
-65 -69 0
-64 -69 0
-55 -69 0
-69 -189 0
-24 -69 0
-64 -65 0
-55 -65 0
-65 -189 0
-24 -65 0
-55 -64 0
-64 -189 0
-24 -64 0
-55 -189 0
-24 -55 0
-24 -189 0
